100
32
4
19
9
9
16
20
18
8
19
21
4
7
16
13
7
9
1
7
21
28
17
17
15
14
19
4
2
3
9
32
4
10
4
3
6
21
24
19
1
5
17
14
26
6
4
22
1
25
3
16
17
17
6
25
25
17
7
16
25
2
24
20
9
2
8
8
17
6
23
2
12
25
4
8
19
14
20
2
21
13
12
6
1
14
20
11
32
15
3
6
5
21
1
5
20
4
15
9
13
14